(set-logic QF_UF)
(declare-fun A0 () Bool)
(declare-fun A1 () Bool)
(declare-fun A2 () Bool)
(declare-fun A4 () Bool)
(declare-fun A5 () Bool)
(declare-fun A6 () Bool)
(declare-fun A7 () Bool)
(declare-fun A8 () Bool)
(declare-fun A9 () Bool)
(declare-fun A10 () Bool)
(declare-fun A11 () Bool)
(declare-fun A12 () Bool)
(declare-fun A13 () Bool)
(declare-fun A14 () Bool)
(declare-fun A16 () Bool)
(declare-fun A17 () Bool)
(declare-fun A18 () Bool)
(declare-fun A19 () Bool)
(declare-fun A20 () Bool)
(declare-fun A21 () Bool)
(declare-fun A22 () Bool)
(declare-fun A23 () Bool)
(declare-fun A25 () Bool)
(declare-fun A26 () Bool)
(declare-fun A27 () Bool)
(declare-fun A28 () Bool)
(declare-fun A29 () Bool)
(assert (let ((.def_0 (not A6))) (let ((.def_1 (= A16 .def_0))) (let ((.def_2 (not A10))) (let ((.def_3 (and A12 .def_2))) (let ((.def_4 (not .def_3))) (let ((.def_5 (and .def_4 .def_1))) (let ((.def_6 (not A21))) (let ((.def_7 (and .def_6 A9))) (let ((.def_8 (and A25 A2))) (let ((.def_9 (not .def_8))) (let ((.def_10 (and .def_9 .def_7))) (let ((.def_11 (or .def_10 .def_5))) (let ((.def_12 (not .def_11))) (let ((.def_13 (not A22))) (let ((.def_14 (not A13))) (let ((.def_15 (and .def_14 .def_13))) (let ((.def_16 (not .def_15))) (let ((.def_17 (not A27))) (let ((.def_18 (and A10 .def_17))) (let ((.def_19 (and .def_18 .def_16))) (let ((.def_20 (not A9))) (let ((.def_21 (= .def_20 A12))) (let ((.def_22 (= .def_13 A16))) (let ((.def_23 (not .def_22))) (let ((.def_24 (and .def_23 .def_21))) (let ((.def_25 (and .def_24 .def_19))) (let ((.def_26 (not .def_25))) (let ((.def_27 (or .def_26 .def_12))) (let ((.def_28 (and A9 .def_14))) (let ((.def_29 (not .def_28))) (let ((.def_30 (and .def_20 .def_20))) (let ((.def_31 (not .def_30))) (let ((.def_32 (or .def_31 .def_29))) (let ((.def_33 (not A1))) (let ((.def_34 (= A12 .def_33))) (let ((.def_35 (or .def_2 .def_0))) (let ((.def_36 (not .def_35))) (let ((.def_37 (and .def_36 .def_34))) (let ((.def_38 (and .def_37 .def_32))) (let ((.def_39 (and A5 .def_2))) (let ((.def_40 (not A18))) (let ((.def_41 (or A19 .def_40))) (let ((.def_42 (not .def_41))) (let ((.def_43 (and .def_42 .def_39))) (let ((.def_44 (not .def_43))) (let ((.def_45 (not A7))) (let ((.def_46 (or .def_45 .def_40))) (let ((.def_47 (not A14))) (let ((.def_48 (or .def_47 A13))) (let ((.def_49 (not .def_48))) (let ((.def_50 (and .def_49 .def_46))) (let ((.def_51 (or .def_50 .def_44))) (let ((.def_52 (or .def_51 .def_38))) (let ((.def_53 (and .def_52 .def_27))) (let ((.def_54 (and .def_20 A5))) (let ((.def_55 (not A25))) (let ((.def_56 (or A11 .def_55))) (let ((.def_57 (not .def_56))) (let ((.def_58 (and .def_57 .def_54))) (let ((.def_59 (not A2))) (let ((.def_60 (and .def_59 A20))) (let ((.def_61 (not .def_60))) (let ((.def_62 (not A28))) (let ((.def_63 (or A8 .def_62))) (let ((.def_64 (not .def_63))) (let ((.def_65 (and .def_64 .def_61))) (let ((.def_66 (or .def_65 .def_58))) (let ((.def_67 (not .def_66))) (let ((.def_68 (and A29 A14))) (let ((.def_69 (= A27 .def_62))) (let ((.def_70 (not .def_69))) (let ((.def_71 (and .def_70 .def_68))) (let ((.def_72 (or A26 .def_40))) (let ((.def_73 (and A7 A8))) (let ((.def_74 (not .def_73))) (let ((.def_75 (and .def_74 .def_72))) (let ((.def_76 (not .def_75))) (let ((.def_77 (or .def_76 .def_71))) (let ((.def_78 (not .def_77))) (let ((.def_79 (and .def_78 .def_67))) (let ((.def_80 (or A1 A2))) (let ((.def_81 (not .def_80))) (let ((.def_82 (not A4))) (let ((.def_83 (and .def_0 .def_82))) (let ((.def_84 (or .def_83 .def_81))) (let ((.def_85 (not A23))) (let ((.def_86 (or .def_55 .def_85))) (let ((.def_87 (not .def_86))) (let ((.def_88 (or A4 .def_13))) (let ((.def_89 (or .def_88 .def_87))) (let ((.def_90 (not .def_89))) (let ((.def_91 (and .def_90 .def_84))) (let ((.def_92 (not .def_91))) (let ((.def_93 (or A20 A0))) (let ((.def_94 (not A29))) (let ((.def_95 (and .def_94 A1))) (let ((.def_96 (or .def_95 .def_93))) (let ((.def_97 (not A17))) (let ((.def_98 (or A4 .def_97))) (let ((.def_99 (not .def_98))) (let ((.def_100 (and .def_6 A2))) (let ((.def_101 (not .def_100))) (let ((.def_102 (and .def_101 .def_99))) (let ((.def_103 (not .def_102))) (let ((.def_104 (or .def_103 .def_96))) (let ((.def_105 (and .def_104 .def_92))) (let ((.def_106 (not .def_105))) (let ((.def_107 (or .def_106 .def_79))) (let ((.def_108 (or .def_107 .def_53))) .def_108))))))))))))))))))))))))))))))))))))))))))))))))))))))))))))))))))))))))))))))))))))))))))))))))))))))))))))))
(check-sat)
